(declare-const delta_w Real)
(declare-const delta_j Int)
(declare-const delta_k Int)
(assert (exists
         ((|w'?1| Real) (|S1,0?2| Real) (|k'?3| Int) (KSUM1?4 Int)
            (|K1,0?5| Int) (K?6 Int) (tr?7 Int) (|k'?8| Int) (|w'?9| Real)
            (|j'?10| Int) (w?11 Real) (k?12 Int) (j?13 Int) (n?14 Int)
            (i?15 Int))
         (and (< (- j?13) 0) (< (- n?14) 0) (<= (- i?15) 0)
                (<= (+ (- n?14) j?13) 0) (<= (- K?6) 0) (<= (- |K1,0?5|) 0)
                (= (+ |K1,0?5| (- K?6)) 0) (<= (+ KSUM1?4 (- K?6)) 0)
                (= (+ (- |S1,0?2|) |k'?3| (- |K1,0?5|)) 0)
                (= (+ (- KSUM1?4) |K1,0?5|) 0) (= |S1,0?2| 0)
                (or (and (= K?6 0) (= (+ (- |w'?1|) tr?7) 0) (= (- |k'?3|) 0))
                      (and (<= (+ (- K?6) 1) 0) (<= (+ (- i?15) 1) 0)
                             (<= (+ |k'?3| (- i?15)) 0)
                             (<= (+ (- |k'?3|) 1) 0)))
                (= (+ |k'?3| (- K?6)) 0) (<= (- K?6) 0) (<= (- |k'?3|) 0)
                (<= (- i?15) 0) (<= (+ (- |k'?3|) i?15) 0)
                (= (+ |w'?9| (- |w'?1|)) 0) (= (+ |k'?8| (- |k'?3|)) 0)
                (= (+ |j'?10| (- j?13) -1) 0)
                (= delta_j (+ |j'?10| (- j?13)))
                (= delta_k (+ |k'?8| (- k?12)))
                (= delta_w (+ |w'?9| (- w?11))))))
(check-sat)
